c Cardinality constraint <=k(x_1,...,x_n) for k = 1 and n = 9.
p cnf 17 23
-1 10 0
-2 11 0
-10 11 0
-2 -10 0
-3 12 0
-11 12 0
-3 -11 0
-4 13 0
-12 13 0
-4 -12 0
-5 14 0
-13 14 0
-5 -13 0
-6 15 0
-14 15 0
-6 -14 0
-7 16 0
-15 16 0
-7 -15 0
-8 17 0
-16 17 0
-8 -16 0
-9 -17 0
